NAME : mr36
COMMENT : 36-city problem (DISC)
TYPE : TSP
DIMENSION : 36
EDGE_WEIGHT_TYPE : EUC_2D
NODE_COORD_SECTION
1 73 100
2 61 24
3 96 3
4 15 16
5 81 49
6 37 36
7 19 64
8 26 42
9 63 19
10 4 36
11 95 49
12 91 81
13 56 41
14 20 44
15 24 88
16 1 20
17 23 73
18 38 69
19 46 21
20 25 9
21 47 21
22 22 87
23 68 72
24 46 67
25 60 41
26 33 8
27 23 24
28 22 21
29 18 17
30 3 95
31 63 26
32 54 91
33 25 78
34 53 15
35 18 89
36 35 8
EOF
